************************************************************************
file with basedata            : mm16_.bas
initial value random generator: 2108547676
************************************************************************
projects                      :  1
jobs (incl. supersource/sink ):  12
horizon                       :  66
RESOURCES
  - renewable                 :  2   R
  - nonrenewable              :  2   N
  - doubly constrained        :  0   D
************************************************************************
PROJECT INFORMATION:
pronr.  #jobs rel.date duedate tardcost  MPM-Time
    1     10      0        7        0        7
************************************************************************
PRECEDENCE RELATIONS:
jobnr.    #modes  #successors   successors
   1        1          3           2   3   4
   2        3          3           6   8  10
   3        3          3           5  10  11
   4        3          1           7
   5        3          1           9
   6        3          1           9
   7        3          1           8
   8        3          2           9  11
   9        3          1          12
  10        3          1          12
  11        3          1          12
  12        1          0        
************************************************************************
REQUESTS/DURATIONS:
jobnr. mode duration  R 1  R 2  N 1  N 2
------------------------------------------------------------------------
  1      1     0       0    0    0    0
  2      1     1       1    0    3    5
         2     6       0   10    3    5
         3     9       0    5    2    4
  3      1     3       8    0    5    9
         2     4       0   10    1    6
         3     4       0   10    2    4
  4      1     1       0    8    4    7
         2     7       0    4    3    3
         3     7       6    0    1    4
  5      1     3       0    9    8    6
         2     6       0    9    4    6
         3     6       5    0    6    2
  6      1     4       0    9    7    7
         2     5      10    0    5    7
         3     7       0    3    2    7
  7      1     2       9    0    8    9
         2     3       0    6    8    7
         3     4       8    0    7    7
  8      1     1       0    6    9    7
         2     3       0    4    5    6
         3     9       0    3    3    6
  9      1     1       8    0    8    9
         2     3       7    0    8    9
         3     7       6    0    7    7
 10      1     2       0    2    8    7
         2     2       5    0    8    8
         3     6       3    0    8    1
 11      1     1       2    0    3    8
         2     6       0    9    2    7
         3     7       0    9    1    6
 12      1     0       0    0    0    0
************************************************************************
RESOURCEAVAILABILITIES:
  R 1  R 2  N 1  N 2
   16   16   63   75
************************************************************************
MAXIMAL LAGS:
from  to  type  delay
    1   12   ES      0
    1    2   ES      0
    2   12   ES      0
    1    3   ES      0
    3   12   ES      0
    1    4   ES      0
    4   12   ES      0
    1    5   ES      0
    5   12   ES      0
    1    6   ES      0
    6   12   ES      0
    1    7   ES      0
    7   12   ES      0
    1    8   ES      0
    8   12   ES      0
    1    9   ES      0
    9   12   ES      0
    1   10   ES      0
   10   12   ES      0
    1   11   ES      0
   11   12   ES      0
    1   12   ES      0
    2    6   SS     -2
    2    6   SE      1
    2    6   ES    -11
    2    6   EE      6
    2    8   SS     -5
    2    8   SE     11
    2    8   ES     -8
    2    8   EE    -12
    2   10   SS     -4
    2   10   SE      5
    2   10   ES      6
    2   10   EE      6
    3    5   SS     11
    3    5   SE      1
    3    5   ES     -3
    3    5   EE     -8
    3   10   SS     -6
    3   10   SE     -2
    3   10   ES     -5
    3   10   EE      0
    3   11   SS      6
    3   11   SE     -5
    3   11   ES      3
    3   11   EE      5
    4    7   SS      8
    4    7   SE      9
    4    7   ES     -2
    4    7   EE     -4
    5    9   SS     12
    5    9   SE      3
    5    9   ES     11
    5    9   EE      8
    6    9   SS     11
    6    9   SE      3
    6    9   ES      2
    6    9   EE     -7
    7    8   SS     11
    7    8   SE     -1
    7    8   ES     -7
    7    8   EE     -8
    8    9   SS     11
    8    9   SE      5
    8    9   ES      3
    8    9   EE     -7
    8   11   SS      5
    8   11   SE      8
    8   11   ES    -11
    8   11   EE      4
************************************************************************
